<?xml version = "1.0" standalone="yes"?>
<!-- This file has been generated by DOcplex version 2.23.222  -->
<CPLEXSolution version="1.0">
 <header
   problemName="CVRP"
   objectiveValue="9934.05"
  />
 <variables>
  <variable name="x_0_2" index="1" value="1.00000"/>
  <variable name="x_0_3" index="2" value="1.00000"/>
  <variable name="x_0_4" index="3" value="1.00000"/>
  <variable name="x_0_7" index="6" value="1.00000"/>
  <variable name="x_0_10" index="9" value="1.00000"/>
  <variable name="x_0_11" index="10" value="1.00000"/>
  <variable name="x_0_12" index="11" value="1.00000"/>
  <variable name="x_0_14" index="13" value="1.00000"/>
  <variable name="x_0_16" index="15" value="1.00000"/>
  <variable name="x_0_18" index="17" value="1.00000"/>
  <variable name="x_1_17" index="34" value="1.00000"/>
  <variable name="x_2_15" index="50" value="1.00000"/>
  <variable name="x_3_9" index="62" value="1.00000"/>
  <variable name="x_4_0" index="72" value="1.00000"/>
  <variable name="x_5_0" index="90" value="1.00000"/>
  <variable name="x_6_0" index="108" value="1.00000"/>
  <variable name="x_7_5" index="131" value="1.00000"/>
  <variable name="x_8_0" index="144" value="1.00000"/>
  <variable name="x_9_6" index="168" value="1.00000"/>
  <variable name="x_10_1" index="181" value="1.00000"/>
  <variable name="x_11_0" index="198" value="1.00000"/>
  <variable name="x_12_13" index="228" value="1.00000"/>
  <variable name="x_13_8" index="242" value="1.00000"/>
  <variable name="x_14_0" index="252" value="1.00000"/>
  <variable name="x_15_0" index="270" value="1.00000"/>
  <variable name="x_16_0" index="288" value="1.00000"/>
  <variable name="x_17_0" index="306" value="1.00000"/>
  <variable name="x_18_0" index="324" value="1.00000"/>
  <variable name="u_1" index="342" value="42.00000"/>
  <variable name="u_2" index="343" value="20.00000"/>
  <variable name="u_3" index="344" value="7.00000"/>
  <variable name="u_4" index="345" value="46.00000"/>
  <variable name="u_5" index="346" value="46.00000"/>
  <variable name="u_6" index="347" value="47.00000"/>
  <variable name="u_7" index="348" value="26.00000"/>
  <variable name="u_8" index="349" value="47.00000"/>
  <variable name="u_9" index="350" value="32.00000"/>
  <variable name="u_10" index="351" value="21.00000"/>
  <variable name="u_11" index="352" value="37.00000"/>
  <variable name="u_12" index="353" value="3.00000"/>
  <variable name="u_13" index="354" value="13.00000"/>
  <variable name="u_14" index="355" value="45.00000"/>
  <variable name="u_15" index="356" value="42.00000"/>
  <variable name="u_16" index="357" value="47.00000"/>
  <variable name="u_17" index="358" value="47.00000"/>
  <variable name="u_18" index="359" value="35.00000"/>
 </variables>
</CPLEXSolution>
